
Gurobi 6.0.5 (win64) logging started 09/23/15 17:18:15

Optimize a model with 2 rows, 3 columns and 5 nonzeros
Coefficient statistics:
  Matrix range    [1e+00, 3e+00]
  Objective range [1e+00, 2e+00]
  Bounds range    [1e+00, 1e+00]
  RHS range       [1e+00, 4e+00]
Found heuristic solution: objective 2
Presolve removed 2 rows and 3 columns
Presolve time: 0.01s

Explored 0 nodes (0 simplex iterations) in 0.01 seconds
Thread count was 1 (of 8 available processors)

Optimal solution found (tolerance 1.00e-04)
Best objective 3.000000000000e+00, best bound 3.000000000000e+00, gap 0.0%

Gurobi 6.0.5 (win64) logging started 09/24/15 03:18:26

Optimize a model with 2 rows, 3 columns and 5 nonzeros
Coefficient statistics:
  Matrix range    [1e+00, 3e+00]
  Objective range [1e+00, 2e+00]
  Bounds range    [1e+00, 1e+00]
  RHS range       [1e+00, 4e+00]
Found heuristic solution: objective 2
Presolve removed 2 rows and 3 columns
Presolve time: 0.05s

Explored 0 nodes (0 simplex iterations) in 0.13 seconds
Thread count was 1 (of 8 available processors)

Optimal solution found (tolerance 1.00e-04)
Best objective 3.000000000000e+00, best bound 3.000000000000e+00, gap 0.0%

Gurobi 6.0.5 (win64) logging started 09/24/15 04:30:47

Optimize a model with 0 rows, 0 columns and 0 nonzeros
Coefficient statistics:
  Matrix range    [0e+00, 0e+00]
  Objective range [0e+00, 0e+00]
  Bounds range    [0e+00, 0e+00]
  RHS range       [0e+00, 0e+00]
Presolve time: 0.04s
Presolve: All rows and columns removed
Iteration    Objective       Primal Inf.    Dual Inf.      Time
       0   -0.0000000e+00   0.000000e+00   0.000000e+00      0s

Solved in 0 iterations and 0.07 seconds
Optimal objective -0.000000000e+00

Gurobi 6.0.5 (win64) logging started 09/24/15 04:36:49

Optimize a model with 12 rows, 36 columns and 140 nonzeros
Coefficient statistics:
  Matrix range    [1e+00, 1e+00]
  Objective range [0e+00, 0e+00]
  Bounds range    [1e+00, 1e+00]
  RHS range       [1e+00, 1e+00]
Presolve removed 0 rows and 6 columns
Presolve time: 0.00s

Explored 0 nodes (0 simplex iterations) in 0.00 seconds
Thread count was 1 (of 8 available processors)

Model is infeasible
Best objective -, best bound -, gap -

Gurobi 6.0.5 (win64) logging started 09/24/15 04:39:55

Optimize a model with 12 rows, 36 columns and 140 nonzeros
Coefficient statistics:
  Matrix range    [1e+00, 1e+00]
  Objective range [0e+00, 0e+00]
  Bounds range    [1e+00, 1e+00]
  RHS range       [1e+00, 1e+00]
Presolve removed 0 rows and 6 columns
Presolve time: 0.00s

Explored 0 nodes (0 simplex iterations) in 0.00 seconds
Thread count was 1 (of 8 available processors)

Model is infeasible
Best objective -, best bound -, gap -

Gurobi 6.0.5 (win64) logging started 09/24/15 04:42:23

Optimize a model with 60 rows, 900 columns and 17980 nonzeros
Coefficient statistics:
  Matrix range    [1e+00, 1e+00]
  Objective range [7e+00, 3e+02]
  Bounds range    [1e+00, 1e+00]
  RHS range       [1e+00, 1e+00]
Presolve removed 0 rows and 30 columns
Presolve time: 0.00s

Explored 0 nodes (0 simplex iterations) in 0.01 seconds
Thread count was 1 (of 8 available processors)

Model is infeasible
Best objective -, best bound -, gap -

Gurobi 6.0.5 (win64) logging started 09/24/15 04:44:26

Optimize a model with 60 rows, 900 columns and 17980 nonzeros
Coefficient statistics:
  Matrix range    [1e+00, 1e+00]
  Objective range [7e+00, 3e+02]
  Bounds range    [1e+00, 1e+00]
  RHS range       [1e+00, 1e+00]
Presolve removed 0 rows and 30 columns
Presolve time: 0.00s

Explored 0 nodes (0 simplex iterations) in 0.01 seconds
Thread count was 1 (of 8 available processors)

Model is infeasible
Best objective -, best bound -, gap -

Gurobi 6.0.5 (win64) logging started 09/24/15 04:46:39

Optimize a model with 60 rows, 900 columns and 3480 nonzeros
Coefficient statistics:
  Matrix range    [1e+00, 1e+00]
  Objective range [7e+00, 3e+02]
  Bounds range    [1e+00, 1e+00]
  RHS range       [1e+00, 1e+00]
Presolve removed 0 rows and 306 columns
Presolve time: 0.00s

Explored 0 nodes (0 simplex iterations) in 0.00 seconds
Thread count was 1 (of 8 available processors)

Model is infeasible
Best objective -, best bound -, gap -

Gurobi 6.0.5 (win64) logging started 09/24/15 05:02:11

Optimize a model with 60 rows, 900 columns and 3480 nonzeros
Coefficient statistics:
  Matrix range    [1e+00, 1e+00]
  Objective range [7e+00, 3e+02]
  Bounds range    [1e+00, 1e+00]
  RHS range       [1e+00, 1e+00]
Presolve removed 0 rows and 306 columns
Presolve time: 0.00s

Explored 0 nodes (0 simplex iterations) in 0.00 seconds
Thread count was 1 (of 8 available processors)

Model is infeasible
Best objective -, best bound -, gap -

Gurobi 6.0.5 (win64) logging started 09/24/15 05:07:28

Optimize a model with 60 rows, 900 columns and 1800 nonzeros
Coefficient statistics:
  Matrix range    [1e+00, 1e+00]
  Objective range [7e+00, 3e+02]
  Bounds range    [1e+00, 1e+00]
  RHS range       [1e+00, 1e+00]
Found heuristic solution: objective 667
Presolve time: 0.05s
Presolved: 60 rows, 900 columns, 1800 nonzeros
Variable types: 0 continuous, 900 integer (900 binary)

Root relaxation: objective 2.300000e+02, 89 iterations, 0.01 seconds

    Nodes    |    Current Node    |     Objective Bounds      |     Work
 Expl Unexpl |  Obj  Depth IntInf | Incumbent    BestBd   Gap | It/Node Time

*    0     0               0     230.0000000  230.00000  0.00%     -    0s

Explored 0 nodes (89 simplex iterations) in 0.12 seconds
Thread count was 4 (of 8 available processors)

Optimal solution found (tolerance 1.00e-04)
Best objective 2.300000000000e+02, best bound 2.300000000000e+02, gap 0.0%

Gurobi 6.0.5 (win64) logging started 09/24/15 05:13:26

Optimize a model with 60 rows, 900 columns and 1800 nonzeros
Coefficient statistics:
  Matrix range    [1e+00, 1e+00]
  Objective range [7e+00, 3e+02]
  Bounds range    [1e+00, 1e+00]
  RHS range       [1e+00, 1e+00]
Found heuristic solution: objective 667
Presolve time: 0.01s
Presolved: 60 rows, 900 columns, 1800 nonzeros
Variable types: 0 continuous, 900 integer (900 binary)

Root relaxation: objective 2.300000e+02, 89 iterations, 0.00 seconds

    Nodes    |    Current Node    |     Objective Bounds      |     Work
 Expl Unexpl |  Obj  Depth IntInf | Incumbent    BestBd   Gap | It/Node Time

*    0     0               0     230.0000000  230.00000  0.00%     -    0s

Explored 0 nodes (89 simplex iterations) in 0.01 seconds
Thread count was 4 (of 8 available processors)

Optimal solution found (tolerance 1.00e-04)
Best objective 2.300000000000e+02, best bound 2.300000000000e+02, gap 0.0%

Gurobi 6.0.5 (win64) logging started 09/24/15 05:14:34

Optimize a model with 60 rows, 900 columns and 1800 nonzeros
Coefficient statistics:
  Matrix range    [1e+00, 1e+00]
  Objective range [7e+00, 3e+02]
  Bounds range    [1e+00, 1e+00]
  RHS range       [1e+00, 1e+00]
Found heuristic solution: objective 667
Presolve time: 0.01s
Presolved: 60 rows, 900 columns, 1800 nonzeros
Variable types: 0 continuous, 900 integer (900 binary)

Root relaxation: objective 2.300000e+02, 89 iterations, 0.00 seconds

    Nodes    |    Current Node    |     Objective Bounds      |     Work
 Expl Unexpl |  Obj  Depth IntInf | Incumbent    BestBd   Gap | It/Node Time

*    0     0               0     230.0000000  230.00000  0.00%     -    0s

Explored 0 nodes (89 simplex iterations) in 0.01 seconds
Thread count was 4 (of 8 available processors)

Optimal solution found (tolerance 1.00e-04)
Best objective 2.300000000000e+02, best bound 2.300000000000e+02, gap 0.0%
